
Gurobi 9.1.2 (linux64, gurobi_cl) logging started Fri Jul 30 13:51:56 2021

Using license file /opt/gurobi/gurobi.lic
Set parameter TimeLimit to value 600
Set parameter MIPFocus to value 1
Set parameter LogFile to value 912-MIPFocus1-Presolve1-glass4-0.log
Set parameter Presolve to value 1

Gurobi Optimizer version 9.1.2 build v9.1.2rc0 (linux64)
Copyright (c) 2021, Gurobi Optimization, LLC

Read MPS format model from file /nfs/models/mip/glass4.mps.bz2
Reading time = 0.06 seconds
glass4: 396 rows, 322 columns, 1815 nonzeros
Thread count: 4 physical cores, 8 logical processors, using up to 8 threads
Optimize a model with 396 rows, 322 columns and 1815 nonzeros
Model fingerprint: 0x0a9d9037
Variable types: 20 continuous, 302 integer (0 binary)
Coefficient statistics:
  Matrix range     [1e+00, 8e+06]
  Objective range  [1e+00, 1e+06]
  Bounds range     [1e+00, 8e+02]
  RHS range        [1e+00, 8e+06]
Presolve removed 4 rows and 6 columns
Presolve time: 0.01s
Presolved: 392 rows, 316 columns, 1811 nonzeros
Variable types: 19 continuous, 297 integer (297 binary)
Found heuristic solution: objective 3.133356e+09

Root relaxation: objective 8.000024e+08, 72 iterations, 0.00 seconds

    Nodes    |    Current Node    |     Objective Bounds      |     Work
 Expl Unexpl |  Obj  Depth IntInf | Incumbent    BestBd   Gap | It/Node Time

     0     0 8.0000e+08    0   72 3.1334e+09 8.0000e+08  74.5%     -    0s
H    0     0                    3.100022e+09 8.0000e+08  74.2%     -    0s
H    0     0                    2.400018e+09 8.0000e+08  66.7%     -    0s
H    0     0                    2.200018e+09 8.0000e+08  63.6%     -    0s
     0     0 8.0000e+08    0   72 2.2000e+09 8.0000e+08  63.6%     -    0s
     0     0 8.0000e+08    0   72 2.2000e+09 8.0000e+08  63.6%     -    0s
     0     0 8.0000e+08    0   78 2.2000e+09 8.0000e+08  63.6%     -    0s
H    0     0                    2.100016e+09 8.0000e+08  61.9%     -    0s
H    0     0                    2.000016e+09 8.0000e+08  60.0%     -    0s
     0     0 8.0000e+08    0   77 2.0000e+09 8.0000e+08  60.0%     -    0s
     0     0 8.0000e+08    0   86 2.0000e+09 8.0000e+08  60.0%     -    0s
     0     0 8.0000e+08    0   88 2.0000e+09 8.0000e+08  60.0%     -    0s
     0     0 8.0000e+08    0   85 2.0000e+09 8.0000e+08  60.0%     -    0s
     0     0 8.0000e+08    0   69 2.0000e+09 8.0000e+08  60.0%     -    0s
     0     0 8.0000e+08    0   73 2.0000e+09 8.0000e+08  60.0%     -    0s
     0     0 8.0000e+08    0   67 2.0000e+09 8.0000e+08  60.0%     -    0s
H    0     0                    1.966683e+09 8.0000e+08  59.3%     -    0s
H    0     0                    1.950017e+09 8.0000e+08  59.0%     -    0s
     0     2 8.0000e+08    0   57 1.9500e+09 8.0000e+08  59.0%     -    0s
H    3     8                    1.866683e+09 8.0000e+08  57.1%  31.3    0s
H   31    78                    1.850016e+09 8.0000e+08  56.8%  19.9    0s
H   43    78                    1.850016e+09 8.0000e+08  56.8%  18.1    0s
H  122   155                    1.800016e+09 8.0000e+08  55.6%  12.2    0s
H  740   704                    1.800016e+09 8.0001e+08  55.6%   8.0    1s
H  874   833                    1.783349e+09 8.0001e+08  55.1%   7.5    1s
H  923   817                    1.700014e+09 8.0001e+08  52.9%   7.4    1s
H 1104   994                    1.700014e+09 8.0001e+08  52.9%   7.4    1s
H 1267   966                    1.700014e+09 8.0001e+08  52.9%   8.9    2s
H 1453  1042                    1.700013e+09 8.0001e+08  52.9%  13.5    3s
H 1521  1037                    1.650014e+09 8.0001e+08  51.5%  13.8    3s
H 1536   989                    1.633347e+09 8.0001e+08  51.0%  13.9    3s
  1826  1104 1.6000e+09   53   16 1.6333e+09 8.0001e+08  51.0%  15.6    5s
H 1833  1059                    1.633347e+09 8.0001e+08  51.0%  15.6    5s
  3097  1435 9.1765e+08   22   84 1.6333e+09 8.8621e+08  45.7%  20.8   10s
H 5226  2765                    1.600015e+09 9.0001e+08  43.8%  22.8   14s
  5374  2986 1.6000e+09   66   16 1.6000e+09 9.0001e+08  43.8%  22.7   15s
H 5427  2984                    1.600014e+09 9.0001e+08  43.8%  22.9   15s
H 5454  2981                    1.600014e+09 9.0001e+08  43.8%  22.9   15s
* 5515  2768              83    1.500016e+09 9.0001e+08  40.0%  22.8   15s
* 5516  2768              83    1.500016e+09 9.0001e+08  40.0%  22.8   15s
H 6123  3105                    1.500015e+09 9.0001e+08  40.0%  23.8   16s
H 8933  4819                    1.500015e+09 9.0001e+08  40.0%  25.9   19s
  9564  5081 1.1000e+09   36   47 1.5000e+09 9.0001e+08  40.0%  26.2   21s
H11922  5510                    1.400014e+09 9.0001e+08  35.7%  26.0   23s
 14003  6714 1.1000e+09   47   35 1.4000e+09 9.0001e+08  35.7%  27.5   25s
H14296  6149                    1.375015e+09 9.0001e+08  34.5%  27.6   25s
H17055  6731                    1.375015e+09 9.0001e+08  34.5%  29.7   27s
 18387  7278 1.3000e+09   40   20 1.3750e+09 9.0001e+08  34.5%  30.4   30s
 24908  9047 9.0001e+08   55   38 1.3750e+09 9.0001e+08  34.5%  32.4   35s
 30532 10326 infeasible   45      1.3750e+09 9.0001e+08  34.5%  33.2   40s
 36425 11064 9.0215e+08   44   47 1.3750e+09 9.0001e+08  34.5%  33.8   45s
 42728 12158 9.0001e+08   46   43 1.3750e+09 9.0001e+08  34.5%  33.9   50s
 50056 12975 infeasible   47      1.3750e+09 9.0001e+08  34.5%  34.2   56s
 56854 13963 1.0750e+09   48   33 1.3750e+09 9.0001e+08  34.5%  33.4   60s
H60380 14741                    1.375015e+09 9.0001e+08  34.5%  33.0   62s
 63982 14653 1.1000e+09   49   44 1.3750e+09 9.2501e+08  32.7%  32.9   65s
 71221 16166 infeasible   58      1.3750e+09 9.5001e+08  30.9%  32.1   70s
 76622 16232 infeasible   40      1.3750e+09 1.0000e+09  27.3%  32.3   75s
 83450 16942 1.0000e+09   33   88 1.3750e+09 1.0000e+09  27.3%  32.9   80s
 90915 20138 1.0000e+09   47   38 1.3750e+09 1.0000e+09  27.3%  32.9   86s
 96993 21085 1.0000e+09   43   50 1.3750e+09 1.0000e+09  27.3%  32.3   90s
 102738 22114 1.1639e+09   47   37 1.3750e+09 1.0000e+09  27.3%  32.3   95s
 111207 24425 infeasible   45      1.3750e+09 1.0000e+09  27.3%  31.7  100s
H115233 24909                    1.375015e+09 1.0000e+09  27.3%  31.7  103s
 117112 25405 infeasible   52      1.3750e+09 1.0000e+09  27.3%  31.7  105s
 126304 27416 infeasible   61      1.3750e+09 1.0000e+09  27.3%  31.1  110s
 134695 29360 infeasible   57      1.3750e+09 1.0000e+09  27.3%  30.5  115s
 140013 29955 infeasible   49      1.3750e+09 1.0000e+09  27.3%  30.5  120s
 147106 31594 1.1000e+09   39   52 1.3750e+09 1.0000e+09  27.3%  30.1  125s
 153639 33213 1.1000e+09   62   36 1.3750e+09 1.0000e+09  27.3%  30.2  130s
 161488 33581 1.3000e+09   48   40 1.3750e+09 1.0000e+09  27.3%  29.8  135s
 167383 34025 1.0000e+09   50   42 1.3750e+09 1.0000e+09  27.3%  29.8  140s
 176292 35796 infeasible   70      1.3750e+09 1.0000e+09  27.3%  29.4  145s
 179971 35976     cutoff   53      1.3750e+09 1.0000e+09  27.3%  29.4  150s
 186417 36489 1.0500e+09   52   22 1.3750e+09 1.0000e+09  27.3%  29.5  155s
 193393 37811 1.0000e+09   43   36 1.3750e+09 1.0000e+09  27.3%  29.5  160s
 199744 38147 1.0000e+09   43   37 1.3750e+09 1.0000e+09  27.3%  29.2  166s
 207345 38865 infeasible   46      1.3750e+09 1.0000e+09  27.3%  29.1  170s
 216074 40534 1.1667e+09   56   40 1.3750e+09 1.0000e+09  27.3%  28.9  175s
 221144 40865 infeasible   64      1.3750e+09 1.0000e+09  27.3%  28.9  180s
 229793 42253 infeasible   55      1.3750e+09 1.0000e+09  27.3%  28.6  185s
 237686 43455 1.0500e+09   47   38 1.3750e+09 1.0000e+09  27.3%  28.5  190s
 244311 44956 1.3750e+09   49   21 1.3750e+09 1.0000e+09  27.3%  28.6  195s
 251704 44893 1.0000e+09   67   31 1.3750e+09 1.0000e+09  27.3%  28.5  200s
 258096 45575 1.2333e+09   50   33 1.3750e+09 1.0000e+09  27.3%  28.6  205s
 264202 45600 infeasible   59      1.3750e+09 1.0000e+09  27.3%  28.5  210s
 270470 45159 infeasible   67      1.3750e+09 1.0000e+09  27.3%  28.6  215s
 276688 44776 1.0500e+09   57   44 1.3750e+09 1.0000e+09  27.3%  28.7  220s
 283073 44286 1.0385e+09   49   33 1.3750e+09 1.0000e+09  27.3%  28.9  225s
 290039 42860 1.1000e+09   50   30 1.3750e+09 1.0047e+09  26.9%  29.2  230s
 298382 42991 infeasible   52      1.3750e+09 1.0250e+09  25.5%  29.0  235s
 305237 43143 1.2500e+09   49   38 1.3750e+09 1.0333e+09  24.8%  28.8  240s
 310451 44473 1.1000e+09   49   32 1.3750e+09 1.0500e+09  23.6%  28.8  245s
 321872 46154 1.1333e+09   50   37 1.3750e+09 1.0500e+09  23.6%  28.2  250s
 328850 45641 infeasible   57      1.3750e+09 1.0500e+09  23.6%  28.0  255s
 341223 46484 infeasible   78      1.3750e+09 1.0500e+09  23.6%  27.5  260s
 350716 46871 infeasible   57      1.3750e+09 1.0667e+09  22.4%  27.2  265s
 357176 45879 infeasible   51      1.3750e+09 1.0750e+09  21.8%  27.1  270s
 368269 46298 infeasible   72      1.3750e+09 1.0875e+09  20.9%  26.8  275s
 374994 44866 infeasible   39      1.3750e+09 1.1000e+09  20.0%  26.9  280s
 380126 44803 1.1000e+09   37   45 1.3750e+09 1.1000e+09  20.0%  27.2  285s
 385697 45248 1.1000e+09   40   50 1.3750e+09 1.1000e+09  20.0%  27.3  290s
 392002 45534 infeasible   52      1.3750e+09 1.1000e+09  20.0%  27.3  295s
 399406 45604 infeasible   48      1.3750e+09 1.1000e+09  20.0%  27.3  300s
 407227 45517 1.1000e+09   51   51 1.3750e+09 1.1000e+09  20.0%  27.3  305s
 413480 45241 infeasible   59      1.3750e+09 1.1000e+09  20.0%  27.2  310s
 421867 45067 infeasible   41      1.3750e+09 1.1000e+09  20.0%  27.1  315s
 429305 44678 1.1000e+09   51   24 1.3750e+09 1.1000e+09  20.0%  27.0  320s
 438818 45754 1.1000e+09   60   37 1.3750e+09 1.1000e+09  20.0%  26.7  325s
 447047 44337 1.1000e+09   41   26 1.3750e+09 1.1000e+09  20.0%  26.7  330s
 457545 44059 infeasible   47      1.3750e+09 1.1000e+09  20.0%  26.4  335s
 467107 41889 infeasible   55      1.3750e+09 1.1125e+09  19.1%  26.3  340s
 474217 41676 infeasible   55      1.3750e+09 1.1236e+09  18.3%  26.1  345s
 481483 40056 infeasible   47      1.3750e+09 1.1333e+09  17.6%  26.0  350s
H481500 35974                    1.320013e+09 1.1333e+09  14.1%  26.0  350s
H488895 31699                    1.320013e+09 1.1500e+09  12.9%  25.9  353s
H490438 13322                    1.200013e+09 1.1583e+09  3.47%  25.9  354s
 494291  9364 infeasible   60      1.2000e+09 1.1750e+09  2.08%  25.7  355s

Cutting planes:
  Gomory: 45
  Cover: 11
  Implied bound: 53
  MIR: 58
  Flow cover: 389
  GUB cover: 1
  Inf proof: 2
  RLT: 205
  Relax-and-lift: 145

Explored 496049 nodes (12743117 simplex iterations) in 355.02 seconds
Thread count was 8 (of 8 available processors)

Solution count 10: 1.20001e+09 1.32001e+09 1.32001e+09 ... 1.50002e+09

Optimal solution found (tolerance 1.00e-04)
Best objective 1.200012600000e+09, best bound 1.200003666667e+09, gap 0.0007%
